0000000000000000
0000000000000000
0000000000000000
0010000000000000
0001000000000000
0000100000000001
0000110000000010
0001001000000100
0010000100001000
0100000010010000
1000000001100000
0000000000100000
0000000000010000
0000000000001000
0000000000000100
0000000000000000